n_res = 4;
rcap = [25, 27, 108, 102];
rtype = [1, 1, 2, 2];
n_tasks = 16;
modes = [ {1, 2, 3, 4}, {5, 6, 7, 8}, {9, 10, 11, 12}, {13, 14, 15, 16}, {17, 18, 19, 20}, {21, 22, 23, 24}, {25, 26, 27, 28}, {29, 30, 31, 32}, {33, 34, 35, 36}, {37, 38, 39, 40}, {41, 42, 43, 44}, {45, 46, 47, 48}, {49, 50, 51, 52}, {53, 54, 55, 56}, {57, 58, 59, 60}, {61, 62, 63, 64} ];
succ = [ {5, 9, 10}, {4, 11, 14}, {4, 6, 7}, {8, 15}, {6, 11}, {8, 13, 15}, {9, 12, 13}, {12}, {11, 14, 16}, {12}, {15}, {16}, {14}, {}, {}, {} ];
n_opt = 64;
dur = [2, 3, 5, 9, 3, 6, 6, 8, 3, 5, 9, 10, 1, 4, 7, 8, 2, 7, 8, 9, 3, 4, 5, 6, 1, 3, 5, 8, 2, 3, 3, 10, 6, 8, 9, 10, 3, 3, 4, 10, 2, 7, 10, 10, 2, 7, 8, 10, 4, 8, 8, 9, 1, 2, 3, 6, 1, 1, 4, 6, 2, 3, 6, 6];
rreq = [|  5,  0,  5,  0,  9,  0,  5,  3,  0,  0,  0,  0,  5,  0,  0,  0,  0,  0,  7,  0,  0,  8,  3,  0,  6,  4,  0,  0,  8,  8,  0,  0,  7,  7,  0,  3,  0,  7,  6,  0,  0,  0,  8,  0,  7,  4,  0,  2,  0,  5,  0,  5,  0,  0,  0,  7,  0, 10,  9,  9,  0,  5,  5,  0
        |  0,  3,  0,  1,  0,  7,  0,  0,  5,  5,  4,  4,  0,  4,  4,  4,  5,  5,  0,  4,  7,  0,  0,  6,  0,  0,  6,  4,  0,  0, 10, 10,  0,  0,  7,  0,  7,  0,  0,  7,  5,  4,  0,  2,  0,  0,  1,  0,  1,  0,  1,  0,  9,  9,  9,  0,  5,  0,  0,  0,  9,  0,  0,  5
        |  6,  5,  3,  2,  3,  2,  2,  2,  6,  5,  4,  3,  7,  5,  3,  2,  9,  9,  9,  8,  9,  7,  4,  3,  7,  7,  7,  6,  8,  8,  8,  7,  9,  9,  8,  6,  8,  6,  6,  3, 10,  6,  2,  3,  9,  8,  7,  4,  8,  5,  6,  3,  6,  5,  3,  3,  9,  9,  9,  8,  8,  5,  4,  2
        |  6,  6,  5,  3, 10,  9,  9,  8,  7,  6,  6,  6,  8,  8,  5,  3, 10,  8,  8,  5,  9,  8,  6,  6,  6,  6,  5,  4,  6,  5,  4,  4, 10,  9,  9,  9,  3,  3,  3,  2,  9,  7,  4,  4,  7,  7,  6,  6,  9,  5,  7,  3,  2,  2,  2,  2,  6,  6,  5,  4,  4,  3,  2,  2 |];
